sat

(objectives
 ((bvadd PriceProv6 (bvadd PriceProv5 (bvadd PriceProv4 (bvadd PriceProv3 (bvadd PriceProv1 PriceProv2))))) (_ bv2889 32))
)
;; statistics
(
 :cnf-variables 1118
 :cnf-literals 4119
 :cnf-clauses 1792
 :sat-checks 10
 :sat-restarts 35
 :sat-decisions 29716
 :sat-random-decisions 12
 :sat-propagations 174030378
 :sat-theory-propagations 0
 :sat-watched-clauses-visited 190351470
 :sat-binary-watched-clauses-visited 120644940
 :sat-conflicts 12999
 :sat-theory-conflicts 0
 :theory-necessary-interface-equalities 0
 :theory-extra-interface-equalities 0
 :euf-total-calls 31408
 :euf-complete-calls 8
 :euf-conflicts 0
 :euf-implications 0
 :euf-explanations 0
 :euf-egraph-nodes-created 9765
 :euf-egraph-nodes-deleted 7204
 :euf-num-asserted-equalities 597417
 :euf-num-asserted-inequalities 365699
 :euf-num-merges 1126578
 :euf-num-merges-undone 1126578
 :euf-num-atoms-retold 1568
 :la-total-calls 31408
 :la-complete-calls 8
 :la-conflicts 0
 :la-implications 0
 :la-explanations 0
 :la-num-equalities-split 0
 :la-num-tableau-rows 0
 :la-num-tableau-variables 0
 :bv-total-calls 31408
 :bv-complete-calls 8
 :bv-conflicts 0
 :bv-implications 0
 :bv-explanations 0
 :fp-total-calls 31408
 :fp-complete-calls 8
 :fp-conflicts 0
 :fp-implications 0
 :fp-explanations 0
 :arr-total-calls 31408
 :arr-complete-calls 8
 :arr-conflicts 0
 :arr-implications 0
 :arr-explanations 0
 :arr-write-lemmas-added 0
 :arr-row-lemmas-added 0
 :arr-ext-lemmas-added 0
 :arr-const-lemmas-added 0
 :na-total-calls 31408
 :na-complete-calls 8
 :na-conflicts 0
 :na-implications 0
 :na-explanations 0
 :na-num_nonlinear_multiplications 0
 :na-num_axiom_checks 0
 :na-num_zero_lemmas 0
 :na-num_sign_lemmas 0
 :na-num_neutral_lemmas 0
 :na-num_proportionality_lemmas 0
 :na-num_bound_lemmas 0
 :na-num_tangent_lemmas 0
 :na-num_monotonicity_lemmas 0
 :na-num_sat_checks 0
 :na-axiom_check_time 0.000
 :na-sat_check_time 0.000
 :time-seconds 22.257
 :memory-mb 78.427
)
